\ Model RRP
\ LP format - for model browsing. Use MPS format to capture full model detail.
Minimize
  7.211102550927978 x_kij[0,0,1] + 8.944271909999159 x_kij[0,0,2]
   + 12.64911064067352 x_kij[0,0,3] + 34.52535300326414 x_kij[0,0,7]
   + 10.77032961426901 x_kij[0,1,2] + 8.246211251235321 x_kij[0,1,3]
   + 18.11077027627483 x_kij[0,1,4] + 20.8806130178211 x_kij[0,1,5]
   + 29.12043955712207 x_kij[0,1,6] + 10.77032961426901 x_kij[0,2,1]
   + 8.944271909999159 x_kij[0,2,3] + 18.43908891458577 x_kij[0,2,4]
   + 16.49242250247064 x_kij[0,2,5] + 24.08318915758459 x_kij[0,2,6]
   + 8.246211251235321 x_kij[0,3,1] + 8.944271909999159 x_kij[0,3,2]
   + 10.77032961426901 x_kij[0,3,4] + 12.64911064067352 x_kij[0,3,5]
   + 20.8806130178211 x_kij[0,3,6] + 8.246211251235321 x_kij[0,4,5]
   + 14.14213562373095 x_kij[0,4,6] + 12.16552506059644 x_kij[0,4,7]
   + 8.246211251235321 x_kij[0,5,4] + 8.246211251235321 x_kij[0,5,6]
   + 11.6619037896906 x_kij[0,5,7] + 14.14213562373095 x_kij[0,6,4]
   + 8.246211251235321 x_kij[0,6,5] + 8.246211251235321 x_kij[0,6,7]
Subject To
 R0: x_kij[0,0,1] + x_kij[0,0,2] + x_kij[0,0,3] + x_kij[0,0,7] = 1
 R1: x_kij[0,0,7] + x_kij[0,4,7] + x_kij[0,5,7] + x_kij[0,6,7] = 1
 R2: - x_kij[0,0,1] + x_kij[0,1,2] + x_kij[0,1,3] + x_kij[0,1,4]
   + x_kij[0,1,5] + x_kij[0,1,6] - x_kij[0,2,1] - x_kij[0,3,1] = 0
 R3: - x_kij[0,0,2] - x_kij[0,1,2] + x_kij[0,2,1] + x_kij[0,2,3]
   + x_kij[0,2,4] + x_kij[0,2,5] + x_kij[0,2,6] - x_kij[0,3,2] = 0
 R4: - x_kij[0,0,3] - x_kij[0,1,3] - x_kij[0,2,3] + x_kij[0,3,1]
   + x_kij[0,3,2] + x_kij[0,3,4] + x_kij[0,3,5] + x_kij[0,3,6] = 0
 R5: - x_kij[0,1,4] - x_kij[0,2,4] - x_kij[0,3,4] + x_kij[0,4,5]
   + x_kij[0,4,6] + x_kij[0,4,7] - x_kij[0,5,4] - x_kij[0,6,4] = 0
 R6: - x_kij[0,1,5] - x_kij[0,2,5] - x_kij[0,3,5] - x_kij[0,4,5]
   + x_kij[0,5,4] + x_kij[0,5,6] + x_kij[0,5,7] - x_kij[0,6,5] = 0
 R7: - x_kij[0,1,6] - x_kij[0,2,6] - x_kij[0,3,6] - x_kij[0,4,6]
   - x_kij[0,5,6] + x_kij[0,6,4] + x_kij[0,6,5] + x_kij[0,6,7] = 0
 R8: x_kij[0,1,2] + x_kij[0,1,3] + x_kij[0,1,4] + x_kij[0,1,5]
   + x_kij[0,1,6] - x_kij[0,4,5] - x_kij[0,4,6] - x_kij[0,4,7] = 0
 R9: x_kij[0,2,1] + x_kij[0,2,3] + x_kij[0,2,4] + x_kij[0,2,5]
   + x_kij[0,2,6] - x_kij[0,5,4] - x_kij[0,5,6] - x_kij[0,5,7] = 0
 R10: x_kij[0,3,1] + x_kij[0,3,2] + x_kij[0,3,4] + x_kij[0,3,5]
   + x_kij[0,3,6] - x_kij[0,6,4] - x_kij[0,6,5] - x_kij[0,6,7] = 0
 R11: x_kij[0,1,2] + x_kij[0,1,3] + x_kij[0,1,4] + x_kij[0,1,5]
   + x_kij[0,1,6] - z_i[1] = 0
 R12: x_kij[0,2,1] + x_kij[0,2,3] + x_kij[0,2,4] + x_kij[0,2,5]
   + x_kij[0,2,6] - z_i[2] = 0
 R13: x_kij[0,3,1] + x_kij[0,3,2] + x_kij[0,3,4] + x_kij[0,3,5]
   + x_kij[0,3,6] - z_i[3] = 0
 R14: x_kij[0,0,1] + x_kij[0,2,1] + x_kij[0,3,1] <= 1
 R15: x_kij[0,0,2] + x_kij[0,1,2] + x_kij[0,3,2] <= 1
 R16: x_kij[0,0,3] + x_kij[0,1,3] + x_kij[0,2,3] <= 1
 R17: x_kij[0,1,4] + x_kij[0,2,4] + x_kij[0,3,4] + x_kij[0,5,4]
   + x_kij[0,6,4] <= 1
 R18: x_kij[0,1,5] + x_kij[0,2,5] + x_kij[0,3,5] + x_kij[0,4,5]
   + x_kij[0,6,5] <= 1
 R19: x_kij[0,1,6] + x_kij[0,2,6] + x_kij[0,3,6] + x_kij[0,4,6]
   + x_kij[0,5,6] <= 1
 R20: t_ki[0,1] - t_ki[0,4] <= -18.11077027627483
 R21: t_ki[0,2] - t_ki[0,5] <= -16.49242250247064
 R22: t_ki[0,3] - t_ki[0,6] <= -20.8806130178211
 R23: 80 x_kij[0,0,1] + t_ki[0,0] - t_ki[0,1] <= 72.78889744907202
 R24: 80 x_kij[0,0,2] + t_ki[0,0] - t_ki[0,2] <= 71.05572809000084
 R25: 80 x_kij[0,0,3] + t_ki[0,0] - t_ki[0,3] <= 67.35088935932649
 R26: 80 x_kij[0,0,7] + t_ki[0,0] - t_ki[0,7] <= 45.47464699673586
 R27: 80 x_kij[0,1,2] + t_ki[0,1] - t_ki[0,2] <= 69.229670385731
 R28: 80 x_kij[0,1,3] + t_ki[0,1] - t_ki[0,3] <= 71.75378874876468
 R29: 80 x_kij[0,1,4] + t_ki[0,1] - t_ki[0,4] <= 61.88922972372517
 R30: 80 x_kij[0,1,5] + t_ki[0,1] - t_ki[0,5] <= 59.1193869821789
 R31: 80 x_kij[0,1,6] + t_ki[0,1] - t_ki[0,6] <= 50.87956044287793
 R32: 80 x_kij[0,2,1] - t_ki[0,1] + t_ki[0,2] <= 69.229670385731
 R33: 80 x_kij[0,2,3] + t_ki[0,2] - t_ki[0,3] <= 71.05572809000084
 R34: 80 x_kij[0,2,4] + t_ki[0,2] - t_ki[0,4] <= 61.56091108541423
 R35: 80 x_kij[0,2,5] + t_ki[0,2] - t_ki[0,5] <= 63.50757749752935
 R36: 80 x_kij[0,2,6] + t_ki[0,2] - t_ki[0,6] <= 55.91681084241541
 R37: 80 x_kij[0,3,1] - t_ki[0,1] + t_ki[0,3] <= 71.75378874876468
 R38: 80 x_kij[0,3,2] - t_ki[0,2] + t_ki[0,3] <= 71.05572809000084
 R39: 80 x_kij[0,3,4] + t_ki[0,3] - t_ki[0,4] <= 69.229670385731
 R40: 80 x_kij[0,3,5] + t_ki[0,3] - t_ki[0,5] <= 67.35088935932649
 R41: 80 x_kij[0,3,6] + t_ki[0,3] - t_ki[0,6] <= 59.1193869821789
 R42: 80 x_kij[0,4,5] + t_ki[0,4] - t_ki[0,5] <= 71.75378874876468
 R43: 80 x_kij[0,4,6] + t_ki[0,4] - t_ki[0,6] <= 65.85786437626905
 R44: 80 x_kij[0,4,7] + t_ki[0,4] - t_ki[0,7] <= 67.83447493940356
 R45: 80 x_kij[0,5,4] - t_ki[0,4] + t_ki[0,5] <= 71.75378874876468
 R46: 80 x_kij[0,5,6] + t_ki[0,5] - t_ki[0,6] <= 71.75378874876468
 R47: 80 x_kij[0,5,7] + t_ki[0,5] - t_ki[0,7] <= 68.3380962103094
 R48: 80 x_kij[0,6,4] - t_ki[0,4] + t_ki[0,6] <= 65.85786437626905
 R49: 80 x_kij[0,6,5] - t_ki[0,5] + t_ki[0,6] <= 71.75378874876468
 R50: 80 x_kij[0,6,7] + t_ki[0,6] - t_ki[0,7] <= 71.75378874876468
 R51: t_ki[0,4] >= 30
 R52: t_ki[0,5] >= 35
 R53: t_ki[0,6] >= 45
 R54: t_ki[0,4] <= 40
 R55: t_ki[0,5] <= 50
 R56: t_ki[0,6] <= 80
 R57: t_ki[0,0] >= 4
 R58: t_ki[0,1] >= 4
 R59: t_ki[0,2] >= 4
 R60: t_ki[0,3] >= 4
 R61: t_ki[0,4] >= 4
 R62: t_ki[0,5] >= 4
 R63: t_ki[0,6] >= 4
 R64: t_ki[0,0] <= 100
 R65: t_ki[0,1] <= 100
 R66: t_ki[0,2] <= 100
 R67: t_ki[0,3] <= 100
 R68: t_ki[0,4] <= 100
 R69: t_ki[0,5] <= 100
 R70: t_ki[0,6] <= 100
 R71: - t_ki[0,1] + t_ki[0,4] <= 80
 R72: - t_ki[0,2] + t_ki[0,5] <= 80
 R73: - t_ki[0,3] + t_ki[0,6] <= 80
 R74: - t_ki[0,0] + t_ki[0,7] <= 100
 R75: x_kij[0,1,2] + x_kij[0,1,3] + x_kij[0,1,4] + x_kij[0,1,5]
   + x_kij[0,1,6] + x_kij[0,2,1] + x_kij[0,2,3] + x_kij[0,2,4]
   + x_kij[0,2,5] + x_kij[0,2,6] + x_kij[0,3,1] + x_kij[0,3,2]
   + x_kij[0,3,4] + x_kij[0,3,5] + x_kij[0,3,6] <= 4
 R76: z_i[1] + z_i[2] + z_i[3] <= 3
 R77: z_i[1] + z_i[2] + z_i[3] >= 3
 qc0: 11.88922972372517 x_kij[0,1,4] + [ - x_kij[0,1,4] * t_ki[0,1] ] <= 0
 qc1: 14.1193869821789 x_kij[0,1,5] + [ - x_kij[0,1,5] * t_ki[0,1] ] <= 0
 qc2: 15.87956044287793 x_kij[0,1,6] + [ - x_kij[0,1,6] * t_ki[0,1] ] <= 0
 qc3: 11.56091108541423 x_kij[0,2,4] + [ - x_kij[0,2,4] * t_ki[0,2] ] <= 0
 qc4: 18.50757749752936 x_kij[0,2,5] + [ - x_kij[0,2,5] * t_ki[0,2] ] <= 0
 qc5: 20.91681084241541 x_kij[0,2,6] + [ - x_kij[0,2,6] * t_ki[0,2] ] <= 0
 qc6: 19.22967038573099 x_kij[0,3,4] + [ - x_kij[0,3,4] * t_ki[0,3] ] <= 0
 qc7: 22.35088935932648 x_kij[0,3,5] + [ - x_kij[0,3,5] * t_ki[0,3] ] <= 0
 qc8: 24.1193869821789 x_kij[0,3,6] + [ - x_kij[0,3,6] * t_ki[0,3] ] <= 0
 qc9: 21.88922972372517 x_kij[0,1,4] + [ - x_kij[0,1,4] * t_ki[0,1] ] >= 0
 qc10: 29.1193869821789 x_kij[0,1,5] + [ - x_kij[0,1,5] * t_ki[0,1] ] >= 0
 qc11: 50.87956044287793 x_kij[0,1,6] + [ - x_kij[0,1,6] * t_ki[0,1] ]
   >= 0
 qc12: 21.56091108541423 x_kij[0,2,4] + [ - x_kij[0,2,4] * t_ki[0,2] ]
   >= 0
 qc13: 33.50757749752935 x_kij[0,2,5] + [ - x_kij[0,2,5] * t_ki[0,2] ]
   >= 0
 qc14: 55.91681084241541 x_kij[0,2,6] + [ - x_kij[0,2,6] * t_ki[0,2] ]
   >= 0
 qc15: 29.22967038573099 x_kij[0,3,4] + [ - x_kij[0,3,4] * t_ki[0,3] ]
   >= 0
 qc16: 37.35088935932648 x_kij[0,3,5] + [ - x_kij[0,3,5] * t_ki[0,3] ]
   >= 0
 qc17: 59.1193869821789 x_kij[0,3,6] + [ - x_kij[0,3,6] * t_ki[0,3] ] >= 0
Bounds
Binaries
 x_kij[0,0,1] x_kij[0,0,2] x_kij[0,0,3] x_kij[0,0,7] x_kij[0,1,2]
 x_kij[0,1,3] x_kij[0,1,4] x_kij[0,1,5] x_kij[0,1,6] x_kij[0,2,1]
 x_kij[0,2,3] x_kij[0,2,4] x_kij[0,2,5] x_kij[0,2,6] x_kij[0,3,1]
 x_kij[0,3,2] x_kij[0,3,4] x_kij[0,3,5] x_kij[0,3,6] x_kij[0,4,5]
 x_kij[0,4,6] x_kij[0,4,7] x_kij[0,5,4] x_kij[0,5,6] x_kij[0,5,7]
 x_kij[0,6,4] x_kij[0,6,5] x_kij[0,6,7] z_i[1] z_i[2] z_i[3]
End
